decision_x1=[0,4];
decision_x2=[0,4];
decision_x3=[0,4];
decision_x4=[0,4];
decision_x5=[0,4];
decision_x6=[0,4];
random_y1=[0,4];
random_y2=[0,4];
random_y3=[0,4];
constraint_x2_x1=[
0,1,0.66|
0,2,2.7|
0,3,9|
0,4,6.8|
1,0,5.7|
1,2,3.2|
1,3,3.8|
1,4,9.1|
2,0,0.89|
2,1,4.4|
2,3,5.8|
2,4,3.9|
3,0,3.2|
3,1,0.49|
3,2,7.9|
3,4,8.5|
4,0,5.5|
4,1,9.2|
4,2,2.1|
4,3,7.5|
];
constraint_x3_x2=[
0,1,8.8|
0,2,2.5|
0,3,8.7|
0,4,2.3|
1,0,0.64|
1,2,0.77|
1,3,9.9|
1,4,5|
2,0,6|
2,1,3.5|
2,3,2.9|
2,4,0.2|
3,0,8.3|
3,1,9|
3,2,8.7|
3,4,6.7|
4,0,8.2|
4,1,9.3|
4,2,0.37|
4,3,3.7|
];
constraint_x4_x2=[
0,1,3.2|
0,2,1.4|
0,3,5.9|
0,4,2.9|
1,0,0.42|
1,2,1|
1,3,3|
1,4,5.8|
2,0,5.1|
2,1,8.3|
2,3,8.5|
2,4,6.5|
3,0,9|
3,1,3.8|
3,2,4.5|
3,4,2.4|
4,0,6.6|
4,1,6.7|
4,2,1.2|
4,3,7.4|
];
constraint_x4_x3=[
0,1,9.3|
0,2,4.5|
0,3,4.4|
0,4,6.3|
1,0,6.8|
1,2,6.9|
1,3,0.37|
1,4,9.8|
2,0,6.7|
2,1,0.038|
2,3,1.2|
2,4,3.4|
3,0,3.4|
3,1,8.8|
3,2,7.7|
3,4,4.4|
4,0,8.3|
4,1,4.6|
4,2,5.2|
4,3,8.8|
];
constraint_x5_x1=[
0,1,4.8|
0,2,2.7|
0,3,2.2|
0,4,3.6|
1,0,8.7|
1,2,1.5|
1,3,1.2|
1,4,9.2|
2,0,3.9|
2,1,7.6|
2,3,7.2|
2,4,9|
3,0,4.8|
3,1,7.5|
3,2,3.5|
3,4,4.7|
4,0,0.061|
4,1,3.9|
4,2,8.1|
4,3,8.5|
];
constraint_x5_x2=[
0,1,1|
0,2,9.6|
0,3,4|
0,4,1.2|
1,0,8.8|
1,2,9.8|
1,3,6.6|
1,4,8.3|
2,0,8.6|
2,1,1.6|
2,3,6.8|
2,4,7.6|
3,0,3.3|
3,1,5|
3,2,0.89|
3,4,1.9|
4,0,4.2|
4,1,8.6|
4,2,0.59|
4,3,1.7|
];
constraint_x5_x4=[
0,1,3|
0,2,6.3|
0,3,7.2|
0,4,3.9|
1,0,9.4|
1,2,2.8|
1,3,8.6|
1,4,9.4|
2,0,5.2|
2,1,6.2|
2,3,6.2|
2,4,2|
3,0,5.4|
3,1,2.5|
3,2,7.3|
3,4,6.5|
4,0,6.4|
4,1,2.9|
4,2,0.43|
4,3,9.7|
];
constraint_x6_x1=[
0,1,3.1|
0,2,8.1|
0,3,3.6|
0,4,6.1|
1,0,8.4|
1,2,0.54|
1,3,4.5|
1,4,0.84|
2,0,6.2|
2,1,6.4|
2,3,5.6|
2,4,3.1|
3,0,9.8|
3,1,3|
3,2,7.7|
3,4,3.3|
4,0,3.3|
4,1,9.8|
4,2,8.4|
4,3,7.7|
];
constraint_x1_y1=[
0,0,1.9|
0,1,7.2|
0,2,9.5|
0,3,1.6|
0,4,2.1|
1,0,8.5|
1,1,0.39|
1,2,1.9|
1,3,8.8|
1,4,7|
2,0,4.8|
2,1,2.4|
2,2,3.6|
2,3,7|
2,4,3.1|
3,0,8.7|
3,1,4.5|
3,2,3.3|
3,3,0.12|
3,4,9.7|
4,0,5.4|
4,1,8.2|
4,2,2.6|
4,3,5.2|
4,4,1.8|
];
constraint_x2_y2=[
0,0,2.4|
0,1,9.4|
0,2,6.1|
0,3,7.8|
0,4,5.3|
1,0,3.6|
1,1,6.2|
1,2,7.4|
1,3,1.5|
1,4,3|
2,0,1.6|
2,1,6.2|
2,2,1.4|
2,3,1.7|
2,4,7.9|
3,0,4.6|
3,1,6.2|
3,2,9.2|
3,3,4.7|
3,4,8.8|
4,0,0.16|
4,1,5.2|
4,2,4.4|
4,3,9.2|
4,4,5.4|
];
constraint_x3_y3=[
0,0,1.1|
0,1,0.25|
0,2,2.8|
0,3,5.7|
0,4,7.7|
1,0,0.24|
1,1,1.8|
1,2,2.5|
1,3,5.8|
1,4,0.81|
2,0,4.7|
2,1,3.2|
2,2,7|
2,3,3.2|
2,4,5.7|
3,0,8.5|
3,1,0.69|
3,2,9.2|
3,3,5.3|
3,4,5|
4,0,3.6|
4,1,6.4|
4,2,4.5|
4,3,1.3|
4,4,5.1|
];
initial_distribution_y1=[0.32,0.43,0.046,0.035,0.16];
initial_distribution_y2=[0.31,0.19,0.031,0.23,0.24];
initial_distribution_y3=[0.28,0.019,0.18,0.24,0.29];
transition_y1=[
0.024,0.23,0.4,0.17,0.19|
0.22,0.3,0.15,0.013,0.33|
0.42,0.03,0.067,0.11,0.37|
0.28,0.062,0.18,0.32,0.16|
0.073,0.21,0.29,0.31,0.12|
];
transition_y2=[
0.095,0.34,0.059,0.12,0.39|
0.099,0.21,0.25,0.11,0.33|
0.35,0.096,0.22,0.082,0.25|
0.095,0.13,0.25,0.22,0.31|
0.15,0.18,0.34,0.047,0.28|
];
transition_y3=[
0.26,0.27,0.071,0.32,0.069|
0.065,0.092,0.28,0.32,0.24|
0.34,0.17,0.038,0.23,0.22|
0.2,0.31,0.11,0.22,0.16|
0.064,0.28,0.16,0.27,0.22|
];
